LAMMPS (9 Oct 2012)
# 3d protein simulation

units real

timestep 2

dimension	3

boundary s s s

neighbor	10 bin
neigh_modify	delay 5

atom_modify sort 0 0.0

special_bonds fene

atom_style	peptide

bond_style harmonic

pair_style vexcluded 2 3.5 3.5

read_data data.ntl9
  3 = max bonds/atom
  orthogonal box = (-200 -200 -200) to (200 200 200)
  1 by 1 by 1 MPI processor grid
  168 atoms
  222 bonds
  5 = max # of 1-2 neighbors
  5 = max # of special neighbors

pair_coeff * * 0.0
pair_coeff 1 1 20.0 3.5 4.5
pair_coeff 1 4 20.0 3.5 4.5
pair_coeff 4 4 20.0 3.5 4.5
pair_coeff 3 3 20.0 3.5 3.5


velocity	all create 300.0 6573563


group		alpha_carbons id 1 4 7 10 13 16 19 22 25 28 31 34 37 40 43 46 49 52 55 58 61 64 67 70 73 76 79 82 85 88 91 94 97 100 103 106 109 112 115 118 121 124 127 130 133 136 139 142 145 148 151 154 157 160 163 166
56 atoms in group alpha_carbons

group		beta_atoms id 3 6 9 12 15 18 21 24 27 30 33 36 39 42 45 48 51 54 57 60 63 66 69 72 75 78 81 84 87 90 93 96 99 102 105 108 111 114 117 120 123 126 129 132 135 138 141 144 147 150 153 156 159 162 165 168
56 atoms in group beta_atoms

group		oxygens id 2 5 8 11 14 17 20 23 26 29 32 35 38 41 44 47 50 53 56 59 62 65 68 71 74 77 80 83 86 89 92 95 98 101 104 107 110 113 116 119 122 125 128 131 134 137 140 143 146 149 152 155 158 161 164 167
56 atoms in group oxygens


fix		  1 all nvt temp 300.0 300.0 100.0
fix		  2 alpha_carbons backbone beta_atoms oxygens fix_backbone_coeff.data ntl9.seq
Chain flag on
Chi flag on
Rama flag on
Rama_P flag on
SSWeight flag on
ABC flag on
P_AP flag on
Water flag on
Burial flag on
Fragment_Memory_Table flag on
DebyeHuckel on

Reading fragments...
Computing FM table...

compute     qw alpha_carbons qwolynes rnative.dat 2 0.15
variable    qw equal c_qw
compute     rg alpha_carbons gyration
variable    rg equal c_rg
compute     qo alpha_carbons qonuchic cutoff 12.0 nativecoords.dat 1.2
variable    qo equal c_qo
compute     tc beta_atoms totalcontacts 6.5 2
variable    tc equal c_tc
variable    step equal step
variable    E_P equal pe

fix         wham all print 500 "${step}        ${qw} ${rg} ${qo} ${tc} ${E_P}"

thermo		500
dump		1 all atom 1000 dump.lammpstrj

dump_modify	1 sort id

run		50000
Memory usage per processor = 0.864685 Mbytes
Step Temp E_pair E_mol TotEng Press Volume 
       0          300    446.86156    548.71897    472.18654   -10834.887    19504.186 
500        0.9461559507802624891 11.944714220306574148 0.9601873536299765366 78 -427.04700375024924597
     500    318.02242    16.075636    68.644698   -268.73694   -1203.8682    19504.186 
1000        0.86836785077367661945 12.137750434701263913 0.90632318501170960889 76 -450.33376932680982918
    1000    322.00551    10.915155    60.426489   -290.04095    991.04817     19572.24 
1500        0.83249803828515400728 12.264995570396264313 0.86651053864168614549 76 -411.73108829855152635
    1500    311.39797    13.328385    75.898851   -256.71865     757.3664    18357.689 
2000        0.84157850381325371991 12.234235770651149977 0.86651053864168614549 77 -393.58517879736655232
    2000    309.43497    12.163143     94.74291   -239.54991    1056.5165    19151.106 
2500        0.8557849711755560751 12.176446658974555248 0.88290398126463698336 75 -429.25516465380059117
    2500    291.06289    17.649147    68.210753   -284.36543   -350.20785    19151.106 
3000        0.88808706181961472037 12.060344985250170069 0.88524590163934424591 76 -413.38684201895961223
    3000    296.60577    6.0169294    75.711761   -265.73789    2187.5839    19151.106 
3500        0.9331784396681763738 11.97498833349162517 0.93676814988290402209 77 -428.78968154822700853
    3500    297.54583    11.531504    75.639978   -280.67277   -939.37504    19151.106 
4000        0.9022196233322764547 12.025465797090785003 0.91334894613583139655 76 -438.47146410651629367
    4000    301.79974    11.262504    69.559749   -288.23698    1391.8485    19151.106 
4500        0.87242135293211509062 12.109134175630689612 0.86885245901639340804 75 -432.32024771149144726
    4500    266.38435    7.6119575    78.568396   -299.71537    1318.6648    17527.586 
5000        0.87381003680798208233 12.077530301185424477 0.84543325526932089353 73 -428.83416305318337436
    5000    284.06997    12.117909    74.430893   -287.42547    975.08751    17527.586 
5500        0.90626306611068219166 12.05114835633751369 0.92974238875878223443 79 -439.3087724974301409
    5500    306.10036    11.266985    70.459709   -286.93346     738.9768    17527.586 
6000        0.91462399028250696009 11.996404880049336583 0.92740046838407497187 75 -406.60239421617268363
    6000    303.02018    11.698711    82.660323   -255.76038    409.28691    17527.586 
6500        0.92662299526882108136 11.983683729402532236 0.93442622950819675953 79 -426.64931289937698011
    6500    261.56738    17.829936    74.893043   -296.44231    142.36549    17527.586 
7000        0.89659539826206835489 12.09450103149990241 0.91569086651053865911 77 -412.9306398658169428
    7000    277.38736    14.606391    78.191459   -274.84852    1260.3074    17527.586 
7500        0.87900200214554657929 12.158296439354549179 0.93911007025761128464 77 -437.76544454100292114
    7500    301.57483    9.5836783    76.479783   -287.64292    2332.1353    17527.586 
8000        0.91038274529853147055 12.03072352009816548 0.92974238875878223443 80 -438.44203375673373557
    8000    296.86667    12.728265    71.772041   -290.66321    1714.0824    17527.586 
8500        0.92545370228634504794 11.957033746612101055 0.92740046838407497187 78 -409.05228683544225987
    8500    298.38411    13.466207    68.718251   -260.51808     -1258.26    17527.586 
9000        0.92621473871116855037 11.974017920373944079 0.94379391100702580975 78 -417.1960508981858311
    9000    323.50488    16.877722    78.029248   -256.15685   -553.92243    17527.586 
9500        0.90147182895713273698 12.054566121558238478 0.911007025761124134 76 -416.50118040389372709
    9500    273.71953    11.587981    78.070284   -280.24489    611.50319    17527.586 
10000        0.8708518456088344406 12.132562505248227325 0.86416861826697888294 74 -441.26050194222699474
   10000    314.64068    8.0743442    56.530737   -284.63386    -417.2832    17527.586 
10500        0.89721140391639209177 12.07165136665955707 0.91334894613583139655 70 -432.16093170496571929
   10500    275.46691    21.083184    74.456986    -295.0348    -1133.363    17527.586 
11000        0.90671736268915603674 12.06378877826296403 0.90866510538641687145 75 -413.92942582381488137
   11000    288.46849    21.167809    69.206351   -270.33117   -1856.9038    18231.057 
11500        0.92230988679297287725 12.032148946706453074 0.95550351288056201149 84 -427.39168131723829447
   11500    312.97033     22.15833    66.050402   -271.59653   -556.18791    18231.057 
12000        0.89945215660445854144 12.041241613743737915 0.88290398126463698336 75 -426.96326066220757411
   12000    279.77465    12.748097    69.522406   -287.69276   -1375.1806    18231.057 
12500        0.889357692046395365 12.054802787900019467 0.90866510538641687145 72 -420.42126039118545577
   12500    312.87511    10.619871    71.262932   -264.67351    2670.9072    18231.057 
13000        0.87658877727952777548 12.145158377446550801 0.8758782201405151957 73 -422.16737110129054145
   13000    287.51064    15.026548    63.298417   -279.04593   -1363.3337    18231.057 
13500        0.9119402750219794962 12.021632642435275073 0.92974238875878223443 77 -416.21852925530265566
   13500    272.68588    7.6731754    79.909816   -280.47678   -226.65388    18231.057 
14000        0.9129469156570909627 11.99240632001906981 0.90866510538641687145 78 -434.08185468817009678
   14000    281.90476    7.6069223    62.337893   -293.75099    1295.1881    18231.057 
14500        0.89747957817266477143 12.072608204006023414 0.91569086651053865911 73 -393.97380899948115029
   14500    280.80147    14.674498    88.717615   -254.19216    451.11681    18231.057 
15000        0.87648771679267933887 12.159718796952574849 0.90866510538641687145 77 -419.39321019733984031
   15000    278.83448    15.164325    67.951098   -280.59072   -1812.1291    18231.057 
15500        0.84073477661683393425 12.245909334053727946 0.90398126463700234634 76 -411.84132913314675761
   15500    305.01447    7.8932298    72.501192   -260.00657    2174.9072    18231.057 
16000        0.84566764337273858665 12.232374166581859498 0.911007025761124134 76 -417.81270246708714922
   16000    297.95682    13.322374    79.127718   -269.49121    2767.3968    18231.057 
16500        0.87273896866667866057 12.18568074521937028 0.88290398126463698336 78 -435.26214761516155249
   16500    285.54912     7.598077    60.085927   -293.11714   -1005.2084    18231.057 
17000        0.8737712901327392423 12.171585720065781544 0.91803278688524592166 82 -422.53367966557982527
   17000    286.29893    14.903671    73.192324   -280.01542    715.75447    18231.057 
17500        0.88083804048813940657 12.095580253820958916 0.88056206088992972081 73 -434.39317484260118363
   17500    290.16959    14.993047    60.916912   -289.94812   -1044.3977    18231.057 
18000        0.90501607269110118104 12.053907767649549854 0.92505854800936770932 73 -421.51895561147068747
   18000     299.6573    13.356989    68.552225   -272.35097   -219.00206    18231.057 
18500        0.910586871134770659 12.049882806655103806 0.90632318501170960889 80 -425.73135198127459944
   18500    325.95499    7.6159987    57.449642    -263.4725   -441.64466    18899.834 
19000        0.91606689576903677086 11.974966170491606832 0.92974238875878223443 75 -425.07704008862248202
   19000    273.17806    19.310705    70.168473   -289.09029   -1500.9889    18899.834 
19500        0.87418826318033060474 12.124683933147700543 0.87353629976580793315 74 -429.42884627731046976
   19500    308.75985    8.7710446    68.621322   -275.72965   -680.89191    17864.538 
20000        0.87693613755758803574 12.124856376862329199 0.90398126463700234634 76 -407.84902349052765658
   20000    307.07497    13.891654    74.395351   -254.98855     1223.098    17864.538 
20500        0.87955164094758908622 12.141996966692293114 0.90398126463700234634 77 -420.25043238773400844
   20500     303.7644    11.170517    72.740613   -269.03795    2860.2884    17864.538 
21000        0.8839976731202705551 12.079656008231271613 0.87822014051522245826 76 -420.98822807277781521
   21000    344.24247    9.6978196    65.864899   -249.62595   -1594.5701    17864.538 
21500        0.93235646635056357301 11.941246851485070479 0.93676814988290402209 85 -418.97179603951190074
   21500    291.39637    13.304301    78.568831   -273.91606   -1436.2496    17864.538 
22000        0.91380088055049268903 12.00884327277119823 0.92740046838407497187 76 -419.25375330475151259
   22000    300.68265    15.100795    74.159234   -269.57535    442.29816    17864.538 
22500        0.88237759265083448579 12.075213751313057742 0.89461358313817329613 73 -411.37222703692714276
   22500    311.60582    10.030778    77.797615   -256.25632   -1196.0824    17864.538 
23000        0.84782337520990502799 12.232274872413212208 0.88524590163934424591 75 -406.93341131475216343
   23000    272.19908    10.475054    87.054834   -271.43399    953.43677    17864.538 
23500        0.9031853461416318174 12.101510412578392106 0.93442622950819675953 75 -437.67700097067080378
   23500    312.85303    13.836237    69.376632   -281.94024    2082.1164    17864.538 
24000        0.90324392206917514248 12.034575393545615896 0.90398126463700234634 73 -425.30336710540564127
   24000    325.84078    14.463902    66.495954   -263.10136   -878.79878    17864.538 
24500        0.92369762571341673674 11.983250530415734403 0.92740046838407497187 79 -418.44518587280458632
   24500    301.05639    19.787584    75.338949   -268.58074    1943.3195    17864.538 
25000        0.90874355402380291302 12.033085263169201795 0.92037470725995318421 79 -431.29872603210048965
   25000     283.8552    20.657931     70.26666   -289.99695    62.826285    17864.538 
25500        0.89822659091403878051 12.057917566599604342 0.90163934426229508379 75 -431.97029746182641929
   25500    307.93453    12.291743    68.830194   -278.68194    -17.05634    17864.538 
26000        0.87326728038945566901 12.13600694351060838 0.87353629976580793315 76 -432.45891523066211448
   26000    316.34539    10.019796    60.904722   -274.98368    1056.6246    17864.538 
26500        0.89515043406102046131 12.107781219589783817 0.91569086651053865911 75 -416.45018095652949341
   26500    315.31964    15.630296    80.074588   -259.48555    2205.2655    19503.072 
27000        0.8909441037767807936 12.051719888501009947 0.90398126463700234634 75 -421.67617594607895626
   27000    307.41788    10.925469    67.469187   -268.64501    2152.9137    19503.072 
27500        0.86850197092212844119 12.175478236365503193 0.89461358313817329613 75 -422.89634898527634732
   27500    301.63306    16.249187    61.014002   -272.74483     702.9361    19503.072 
28000        0.88804198479340779038 12.104669038348040644 0.88992974238875877102 74 -425.4640557926505835
   28000     331.8653    9.5378249    63.572468   -260.26308    -1564.948    19503.072 
28500        0.90240834763292887555 12.006495652371162564 0.91569086651053865911 73 -410.83778394094940722
   28500    277.55709    9.4811145    75.462543   -272.67118   -92.018003    19503.072 
29000        0.92826097904435866948 11.91339117624610644 0.92271662763466044677 77 -422.95743175655047708
   29000    305.28806    11.917634    68.406959   -270.98648    138.43203    18981.176 
29500        0.90315623012977930273 12.063088553391159152 0.90398126463700234634 80 -439.51545810408492798
   29500    287.89909    12.340727     63.86102   -296.20065   -339.47949    19007.027 
30000        0.89650839420034289518 12.063478579650388056 0.92740046838407497187 77 -421.16128561813445685
   30000    285.14314    10.669194     68.52923   -279.21838    -2207.815    19007.027 
30500        0.87842021911330603334 12.162816255088047868 0.90632318501170960889 73 -418.05868220666565094
   30500    303.95671    19.299866    71.180751   -266.75047   -962.57467    19007.027 
31000        0.90197666973606860363 12.06159665109893453 0.91803278688524592166 75 -427.34047865450793324
   31000    298.58494    13.782928      68.7104   -278.70631     488.5435    19007.027 
31500        0.88010932024080457126 12.123134465403405002 0.86182669789227162038 74 -423.59563136720151988
   31500    330.02198     10.40327    57.783414   -259.31225   -1629.2968    19007.027 
32000        0.89326855988945019771 12.091575982131891109 0.89929742388758782123 75 -430.70469359948555166
   32000    357.39222    12.669594      58.1505   -252.79653   -648.80949    19007.027 
32500        0.89981922968376204519 12.035136082317485773 0.90398126463700234634 76 -420.18075761626920439
   32500    325.61502    15.940416    60.972626   -258.09114    491.27296    19007.027 
33000        0.88064275859714313821 12.144082000815981104 0.91334894613583139655 79 -426.49022077637113171
   33000    296.17485    17.262314    60.429965   -279.05578    2072.6242    19007.027 
33500        0.91019721102737338736 12.056795110069973731 0.93442622950819675953 75 -429.67760878810116765
   33500    285.86678    12.314637    71.397147   -287.37447   -1684.7257    19007.027 
34000        0.90726366683019243897 12.047882422727324681 0.92271662763466044677 75 -415.8903022254953612
   34000    293.96543    11.833032    63.605257    -269.5557   -400.32219    19007.027 
34500        0.90915906312386551846 11.987100051298506642 0.90866510538641687145 77 -415.76238728343594175
   34500    273.93383    11.696185    61.643209   -279.39942   -2003.7734    19007.027 
35000        0.90084459310425912815 12.106828250963515003 0.92037470725995318421 79 -422.83209020226013308
   35000    297.81626    12.921551    65.661008   -274.58056    1034.7685    19007.027 
35500        0.89104649608434649544 12.090732720909235454 0.89461358313817329613 84 -438.93180476305764159
   35500     306.7278    12.800659    60.533288   -286.24416   -1775.4576    19007.027 
36000        0.86792456221262515026 12.113812020522219726 0.86885245901639340804 80 -416.91441566110398753
   36000    310.50967    7.7829869    65.604443   -262.34417    710.39976    19007.027 
36500        0.90136283697965757788 12.035712489522621738 0.90163934426229508379 71 -427.23384907187346471
   36500    302.21299    7.0379908    66.359235   -276.79365   -526.17346    19007.027 
37000        0.92596766000765928784 12.016078693114160103 0.93676814988290402209 75 -415.71647875847639853
   37000    269.39291    12.984159    71.523418   -281.61396   -1848.8611    19007.027 
37500        0.90978061554403744093 12.038367299905434749 0.93208430913348949698 71 -423.50153486771853295
   37500    287.16932    8.8178613     61.14698      -280.55   -966.67967    19007.027 
38000        0.91812124324545896226 12.005539100274058129 0.91569086651053865911 79 -424.82011597327465324
   38000    289.86307     12.70535    74.699798   -280.52765    657.96159    23538.453 
38500        0.89085968849671104408 12.035702315091381109 0.89929742388758782123 79 -409.55378038206464453
   38500    324.96813    7.2540942     80.25978   -247.78618    359.22231    22663.725 
39000        0.86866858088857457076 12.073419742921910114 0.85245901639344257017 75 -419.59179822548708216
   39000    282.90335    11.287991    69.965529   -278.76385    -423.7312    22663.725 
39500        0.89425681804707002343 12.081363165951756855 0.89929742388758782123 72 -416.10477672335832722
   39500    294.73687    9.8832911    65.797851   -269.38615   -98.605859    22663.725 
40000        0.8964179447439815096 12.067994342601615188 0.89461358313817329613 74 -431.74768847795007787
   40000    270.85458    9.6531863    64.397759   -296.91756    343.37899    22663.725 
40500        0.91329031204817645584 12.031690174372617008 0.91803278688524592166 71 -431.27894502005926824
   40500      280.633    11.480239    62.770742   -291.58116    243.78246    23290.593 
41000        0.92428324313738641216 11.960489174640647647 0.94145199063231854719 78 -427.08575638130110974
   41000    286.58873    11.088367    72.364224   -284.42324    2952.4605    23290.593 
41500        0.89445716190448731897 12.046451280857011668 0.89695550351288055868 73 -411.62472425342917859
   41500    313.65736    3.4047463     65.44581   -255.48757    156.61498    23290.593 
42000        0.87651781499865311087 12.095712557365310147 0.87822014051522245826 71 -415.52387365241429507
   42000    301.94636    7.6154685    65.837923    -265.2164   -401.15522    23323.189 
42500        0.8936875873597696085 12.062527231319924326 0.89695550351288055868 72 -410.74900317985867559
   42500     317.6189    8.9178562    66.467241   -252.63981   -2449.1949    23323.189 
43000        0.88204089706689015049 12.056819644697613469 0.8711943793911006706 69 -413.55026212539030439
   43000    326.38657    9.6960927    55.341774   -251.07657    847.73436    23323.189 
43500        0.91501069262564482809 11.982181879039828232 0.93208430913348949698 77 -429.14537999061781193
   43500    331.65662    9.5397003    63.589481   -264.04828    1005.2128    23323.189 
44000        0.92610711460896577574 11.910321467120123629 0.92037470725995318421 79 -429.91678784169994287
   44000    297.58478    16.361927     65.86526   -281.78049   -1197.6697    23323.189 
44500        0.89330588996360715814 12.04729319446670921 0.90398126463700234634 76 -417.81112474009302105
   44500    297.96024    6.7367764    66.850905   -269.48793    1401.4734    23323.189 
45000        0.89714341757668147892 12.01825556274536666 0.89461358313817329613 76 -408.55029634293816798
   45000    293.83151    10.340323     74.81555   -262.28236   -106.01514    23248.816 
45500        0.88251836023355079153 12.076084710045813964 0.8711943793911006706 78 -430.75575095445918805
   45500    274.89727    13.281734    52.071258   -293.91319    355.56256    22738.872 
46000        0.87921459141798341541 12.03801692805795831 0.88524590163934424591 77 -408.00467494022603887
   46000    283.71818    8.5724834     74.10738    -266.7711     1353.305    23967.233 
46500        0.88290571584899479873 12.056701744147153121 0.88992974238875877102 72 -425.29486596884567007
   46500    328.06244    11.610228    54.890852   -261.98693    397.72859    23967.233 
47000        0.91811577002909816603 12.02293719934115579 0.94145199063231854719 74 -414.09345001037627299
   47000    302.94683    12.084032    62.915562   -263.28795   -1801.2181    23967.233 
47500        0.91459669678815080918 11.985987923909174668 0.91334894613583139655 76 -428.84041443277260441
   47500     338.2857    5.6269272    58.547045   -260.44339    152.90323    23967.233 
48000        0.91878837935153301331 11.994968702452400322 0.95081967213114748638 81 -408.14890151682408259
   48000    286.26627    5.0709818    64.174574   -265.64691     210.5058    25890.966 
48500        0.89770774351170112837 12.066643016988580328 0.90866510538641687145 76 -426.36353404585514681
   48500    286.27339    10.562192    59.279458   -283.85799    523.16634    25890.966 
49000        0.88723932999759835827 12.152448246701446521 0.90866510538641687145 77 -431.413722836043803
   49000    303.23731    11.297037    60.200785   -280.46362    545.00039    25890.966 
49500        0.89941565654991706413 12.041470993265017242 0.90398126463700234634 78 -413.21442240804015
   49500    269.80807     9.724014    74.162295   -278.90524   -2799.7624    25890.966 
50000        0.92038331246949511844 11.935486342556464123 0.92740046838407497187 79 -413.08189974266883837
   50000    273.78364    11.612834     68.03878    -276.7937    2067.6798    25890.966 
Loop time of 156.217 on 1 procs for 50000 steps with 168 atoms

Pair  time (%) = 8.80774 (5.63814)
Bond  time (%) = 0.638582 (0.408779)
Neigh time (%) = 0.0146222 (0.00936019)
Comm  time (%) = 0.0267346 (0.0171137)
Outpt time (%) = 0.0278137 (0.0178045)
Other time (%) = 146.702 (93.9088)

Nlocal:    168 ave 168 max 168 min
Histogram: 1 0 0 0 0 0 0 0 0 0
Nghost:    0 ave 0 max 0 min
Histogram: 1 0 0 0 0 0 0 0 0 0
Neighs:    6554 ave 6554 max 6554 min
Histogram: 1 0 0 0 0 0 0 0 0 0
FullNghs:  13108 ave 13108 max 13108 min
Histogram: 1 0 0 0 0 0 0 0 0 0

Total # of neighbors = 13108
Ave neighs/atom = 78.0238
Ave special neighs/atom = 2.64286
Neighbor list builds = 18
Dangerous builds = 0
